(set-logic QF_S)
(declare-const x String)
(assert (str.in.re x (re.inter  (re.++ (re.* (re.comp  (str.to.re "\u{3e}")) ) (re.* (re.comp  (re.union  (str.to.re "\u{22}")  (str.to.re "\u{27}"))) ))  (re.++ (re.* (re.comp  (str.to.re "\u{3e}")) ) (re.++  (re.++  (str.to.re "\u{20}") (re.++  (str.to.re "\u{6c}") (re.++  (str.to.re "\u{61}") (re.++  (str.to.re "\u{62}") (re.++  (str.to.re "\u{65}") (re.++  (str.to.re "\u{6c}") (re.++  (str.to.re "\u{3d}")  (re.union  (str.to.re "\u{22}")  (str.to.re "\u{27}"))))))))) (re.* (re.comp  (re.union  (str.to.re "\u{22}")  (str.to.re "\u{27}"))) ))) )))
(check-sat)
(get-model)